NAME : portgen-50-306
COMMENT : portgen N=50, seed=306
TYPE : TSP
DIMENSION : 50
EDGE_WEIGHT_TYPE : EUC_2D
NODE_COORD_SECTION
1 1907 1066
2 246 2440
3 2773 1409
4 2500 2872
5 781 3131
6 3036 2857
7 1207 2801
8 758 1756
9 1062 1639
10 2110 948
11 425 942
12 1868 133
13 2894 870
14 1542 240
15 57 1935
16 2382 1341
17 1005 1895
18 1404 2236
19 696 1148
20 1569 696
21 1512 504
22 2900 8
23 223 2578
24 3087 1929
25 2368 960
26 1023 2568
27 434 2484
28 497 566
29 61 1513
30 1035 537
31 712 1351
32 1302 84
33 1619 2531
34 3119 1198
35 2577 1343
36 1831 2295
37 2434 1149
38 3087 1019
39 507 2547
40 2799 2328
41 808 29
42 2368 2683
43 1223 1030
44 38 920
45 276 2035
46 2279 2661
47 1734 226
48 2028 2379
49 1233 1750
50 84 2367
